(set-option :produce-models true); benchmark generated from python API
(set-info :status unknown)
(declare-fun l_1_0_9 () Real)
(declare-fun l_1_0_6 () Real)
(declare-fun l_1_0_3 () Real)
(declare-fun l_1_0_2 () Real)
(declare-fun _a_3_ () Real)
(declare-fun _a_1_ () Real)
(declare-fun _a_2_ () Real)
(declare-fun l_1_0_5 () Real)
(declare-fun l_1_0_4 () Real)
(declare-fun _a_0_ () Real)
(declare-fun l_1_0_7 () Real)
(declare-fun l_1_0_1 () Real)
(declare-fun l_1_0_8 () Real)
(declare-fun l_1_0_10 () Real)
(declare-fun l_1_0_11 () Real)
(declare-fun l_1_1_8 () Real)
(declare-fun l_1_1_7 () Real)
(declare-fun l_1_1_6 () Real)
(declare-fun l_1_1_5 () Real)
(declare-fun l_1_1_4 () Real)
(declare-fun l_1_1_3 () Real)
(declare-fun l_1_1_2 () Real)
(declare-fun l_1_1_11 () Real)
(declare-fun l_1_1_9 () Real)
(declare-fun l_1_1_1 () Real)
(declare-fun l_1_1_10 () Real)
(declare-fun l_1_1_12 () Real)
(declare-fun l_1_1_13 () Real)
(declare-fun l_1_2_9 () Real)
(declare-fun l_1_2_8 () Real)
(declare-fun l_1_2_7 () Real)
(declare-fun l_1_2_6 () Real)
(declare-fun l_1_2_5 () Real)
(declare-fun l_1_2_4 () Real)
(declare-fun l_1_2_3 () Real)
(declare-fun l_1_2_10 () Real)
(declare-fun l_1_2_2 () Real)
(declare-fun l_1_2_13 () Real)
(declare-fun l_1_2_11 () Real)
(declare-fun l_1_2_1 () Real)
(declare-fun l_1_2_12 () Real)
(declare-fun l_1_2_14 () Real)
(declare-fun l_1_2_15 () Real)
(declare-fun l_1_3_9 () Real)
(declare-fun l_1_3_8 () Real)
(declare-fun l_1_3_7 () Real)
(declare-fun l_1_3_6 () Real)
(declare-fun l_1_3_5 () Real)
(declare-fun l_1_3_4 () Real)
(declare-fun l_1_3_3 () Real)
(declare-fun l_1_3_12 () Real)
(declare-fun l_1_3_11 () Real)
(declare-fun l_1_3_10 () Real)
(declare-fun l_1_3_2 () Real)
(declare-fun l_1_3_15 () Real)
(declare-fun l_1_3_13 () Real)
(declare-fun l_1_3_1 () Real)
(declare-fun l_1_3_14 () Real)
(declare-fun l_1_3_16 () Real)
(declare-fun l_1_3_17 () Real)
(declare-fun l_1_4_6 () Real)
(declare-fun l_1_4_5 () Real)
(declare-fun l_1_4_4 () Real)
(declare-fun l_1_4_3 () Real)
(declare-fun l_1_4_7 () Real)
(declare-fun l_1_4_1 () Real)
(declare-fun l_1_4_9 () Real)
(declare-fun l_1_4_2 () Real)
(declare-fun l_1_4_8 () Real)
(declare-fun l_1_4_10 () Real)
(declare-fun l_1_4_11 () Real)
(declare-fun l_1_5_8 () Real)
(declare-fun l_1_5_7 () Real)
(declare-fun l_1_5_6 () Real)
(declare-fun l_1_5_5 () Real)
(declare-fun l_1_5_4 () Real)
(declare-fun l_1_5_3 () Real)
(declare-fun l_1_5_9 () Real)
(declare-fun l_1_5_1 () Real)
(declare-fun l_1_5_2 () Real)
(declare-fun l_1_5_11 () Real)
(declare-fun l_1_5_10 () Real)
(declare-fun l_1_5_12 () Real)
(declare-fun l_1_5_13 () Real)
(declare-fun l_1_6_9 () Real)
(declare-fun l_1_6_8 () Real)
(declare-fun l_1_6_7 () Real)
(declare-fun l_1_6_6 () Real)
(declare-fun l_1_6_5 () Real)
(declare-fun l_1_6_4 () Real)
(declare-fun l_1_6_3 () Real)
(declare-fun l_1_6_10 () Real)
(declare-fun l_1_6_2 () Real)
(declare-fun l_1_6_13 () Real)
(declare-fun l_1_6_11 () Real)
(declare-fun l_1_6_1 () Real)
(declare-fun l_1_6_12 () Real)
(declare-fun l_1_6_14 () Real)
(declare-fun l_1_6_15 () Real)
(declare-fun l_1_7_9 () Real)
(declare-fun l_1_7_8 () Real)
(declare-fun l_1_7_7 () Real)
(declare-fun l_1_7_6 () Real)
(declare-fun l_1_7_5 () Real)
(declare-fun l_1_7_4 () Real)
(declare-fun l_1_7_3 () Real)
(declare-fun l_1_7_12 () Real)
(declare-fun l_1_7_11 () Real)
(declare-fun l_1_7_10 () Real)
(declare-fun l_1_7_2 () Real)
(declare-fun l_1_7_15 () Real)
(declare-fun l_1_7_13 () Real)
(declare-fun l_1_7_1 () Real)
(declare-fun l_1_7_14 () Real)
(declare-fun l_1_7_16 () Real)
(declare-fun l_1_7_17 () Real)
(assert
 (let ((?x488 (- (- (* (* (- 200.0) _a_1_) _a_2_) (* (* 200.0 _a_1_) _a_3_)) l_1_0_2)))
 (= (+ (- (+ ?x488 l_1_0_3) (* (* 2.0 l_1_0_6) l_1_0_9)) 1.0) 0.0)))
(assert
 (let ((?x387 (* l_1_0_6 l_1_0_6)))
 (let ((?x412 (* 200.0 l_1_0_3)))
 (let ((?x121 (- (- (* (* (- 200.0) _a_0_) _a_2_) (* (* 200.0 _a_0_) _a_3_)) ?x412)))
 (= (- (- (- ?x121 l_1_0_4) l_1_0_5) ?x387) 0.0)))))
(assert
 (= (- (- l_1_0_1) (* (* 2.0 l_1_0_6) l_1_0_7)) 0.0))
(assert
 (= (- (* (- l_1_0_7) l_1_0_7) (* l_1_0_8 l_1_0_8)) 0.0))
(assert
 (let ((?x30 (- (* (* (- 2.0) l_1_0_10) l_1_0_8) (* (* 2.0 l_1_0_7) l_1_0_9))))
 (= ?x30 0.0)))
(assert
 (let ((?x199 (* l_1_0_9 l_1_0_9)))
 (= (- (- (* (- l_1_0_10) l_1_0_10) (* l_1_0_11 l_1_0_11)) ?x199) 0.0)))
(assert
 (>= l_1_0_1 0.0))
(assert
 (>= l_1_0_2 0.0))
(assert
 (>= l_1_0_3 0.0))
(assert
 (>= l_1_0_4 0.0))
(assert
 (>= l_1_0_5 0.0))
(assert
 (>= l_1_0_6 0.0))
(assert
 (>= l_1_0_8 0.0))
(assert
 (>= l_1_0_11 0.0))
(assert
 (let ((?x243 (* l_1_1_8 l_1_1_8)))
 (let ((?x21 (* 200.0 l_1_1_3)))
 (let ((?x254 (- (+ (* (* 200.0 _a_0_) _a_2_) (* (* 200.0 _a_0_) _a_3_)) ?x21)))
 (= (- (- (- (- (- ?x254 l_1_1_4) l_1_1_5) l_1_1_6) l_1_1_7) ?x243) 0.0)))))
(assert
 (let ((?x69 (- (+ (* (* 200.0 _a_1_) _a_2_) (* (* 200.0 _a_1_) _a_3_)) (* (* 2.0 l_1_1_11) l_1_1_8))))
 (= (- (+ (- ?x69 l_1_1_2) l_1_1_3) 1.0) 0.0)))
(assert
 (= (- (- l_1_1_1) (* (* 2.0 l_1_1_8) l_1_1_9)) 0.0))
(assert
 (= (- (* (- l_1_1_10) l_1_1_10) (* l_1_1_9 l_1_1_9)) 0.0))
(assert
 (let ((?x362 (- (* (* (- 2.0) l_1_1_10) l_1_1_12) (* (* 2.0 l_1_1_11) l_1_1_9))))
 (= ?x362 0.0)))
(assert
 (let ((?x164 (* l_1_1_13 l_1_1_13)))
 (= (- (- (* (- l_1_1_11) l_1_1_11) (* l_1_1_12 l_1_1_12)) ?x164) 0.0)))
(assert
 (>= l_1_1_1 0.0))
(assert
 (>= l_1_1_2 0.0))
(assert
 (>= l_1_1_3 0.0))
(assert
 (>= l_1_1_4 0.0))
(assert
 (>= l_1_1_5 0.0))
(assert
 (>= l_1_1_6 0.0))
(assert
 (>= l_1_1_7 0.0))
(assert
 (>= l_1_1_8 0.0))
(assert
 (>= l_1_1_10 0.0))
(assert
 (>= l_1_1_13 0.0))
(assert
 (let ((?x346 (* 200.0 l_1_2_3)))
 (let ((?x344 (* l_1_2_10 l_1_2_10)))
 (let ((?x155 (- (- (+ (* _a_0_ _a_2_) (* (* 1.0 _a_0_) _a_3_)) ?x344) ?x346)))
 (let ((?x313 (- (- (- (- (- ?x155 l_1_2_4) l_1_2_5) l_1_2_6) l_1_2_7) l_1_2_8)))
 (= (- ?x313 l_1_2_9) 0.0))))))
(assert
 (let ((?x370 (- (+ (* _a_1_ _a_2_) (* (* 1.0 _a_1_) _a_3_)) (* (* 2.0 l_1_2_10) l_1_2_13))))
 (= (+ (- ?x370 l_1_2_2) l_1_2_3) 0.0)))
(assert
 (= (- (- l_1_2_1) (* (* 2.0 l_1_2_10) l_1_2_11)) 0.0))
(assert
 (= (- (* (- l_1_2_11) l_1_2_11) (* l_1_2_12 l_1_2_12)) 0.0))
(assert
 (let ((?x511 (- (* (* (- 2.0) l_1_2_11) l_1_2_13) (* (* 2.0 l_1_2_12) l_1_2_14))))
 (= ?x511 0.0)))
(assert
 (let ((?x528 (* l_1_2_15 l_1_2_15)))
 (= (- (- (* (- l_1_2_13) l_1_2_13) (* l_1_2_14 l_1_2_14)) ?x528) 0.0)))
(assert
 (>= l_1_2_1 0.0))
(assert
 (>= l_1_2_2 0.0))
(assert
 (>= l_1_2_3 0.0))
(assert
 (>= l_1_2_4 0.0))
(assert
 (>= l_1_2_5 0.0))
(assert
 (>= l_1_2_6 0.0))
(assert
 (>= l_1_2_7 0.0))
(assert
 (>= l_1_2_8 0.0))
(assert
 (>= l_1_2_9 0.0))
(assert
 (>= l_1_2_10 0.0))
(assert
 (>= l_1_2_12 0.0))
(assert
 (>= l_1_2_15 0.0))
(assert
 (let ((?x561 (* 200.0 l_1_3_3)))
 (let ((?x559 (* l_1_3_12 l_1_3_12)))
 (let ((?x557 (- (- (* (- _a_0_) _a_2_) (* (* 1.0 _a_0_) _a_3_)) l_1_3_10)))
 (let ((?x565 (- (- (- (- (- (- ?x557 l_1_3_11) ?x559) ?x561) l_1_3_4) l_1_3_5) l_1_3_6)))
 (= (+ (- (- (- ?x565 l_1_3_7) l_1_3_8) l_1_3_9) 1.0) 0.0))))))
(assert
 (let ((?x611 (- (- (* (- _a_1_) _a_2_) (* (* 1.0 _a_1_) _a_3_)) (* (* 2.0 l_1_3_12) l_1_3_15))))
 (= (+ (- ?x611 l_1_3_2) l_1_3_3) 0.0)))
(assert
 (= (- (- l_1_3_1) (* (* 2.0 l_1_3_12) l_1_3_13)) 0.0))
(assert
 (= (- (* (- l_1_3_13) l_1_3_13) (* l_1_3_14 l_1_3_14)) 0.0))
(assert
 (let ((?x658 (- (* (* (- 2.0) l_1_3_13) l_1_3_15) (* (* 2.0 l_1_3_14) l_1_3_16))))
 (= ?x658 0.0)))
(assert
 (let ((?x675 (* l_1_3_17 l_1_3_17)))
 (= (- (- (* (- l_1_3_15) l_1_3_15) (* l_1_3_16 l_1_3_16)) ?x675) 0.0)))
(assert
 (>= l_1_3_1 0.0))
(assert
 (>= l_1_3_2 0.0))
(assert
 (>= l_1_3_3 0.0))
(assert
 (>= l_1_3_4 0.0))
(assert
 (>= l_1_3_5 0.0))
(assert
 (>= l_1_3_6 0.0))
(assert
 (>= l_1_3_7 0.0))
(assert
 (>= l_1_3_8 0.0))
(assert
 (>= l_1_3_9 0.0))
(assert
 (>= l_1_3_10 0.0))
(assert
 (>= l_1_3_11 0.0))
(assert
 (>= l_1_3_12 0.0))
(assert
 (>= l_1_3_14 0.0))
(assert
 (>= l_1_3_17 0.0))
(assert
 (let ((?x706 (* l_1_4_6 l_1_4_6)))
 (= (- (- (- (* 200.0 l_1_4_3) l_1_4_4) l_1_4_5) ?x706) 0.0)))
(assert
 (= (- (- l_1_4_1) (* (* 2.0 l_1_4_6) l_1_4_7)) 0.0))
(assert
 (= (- (- (- l_1_4_2) l_1_4_3) (* (* 2.0 l_1_4_6) l_1_4_9)) 0.0))
(assert
 (= (- (* (- l_1_4_7) l_1_4_7) (* l_1_4_8 l_1_4_8)) 0.0))
(assert
 (let ((?x766 (- (* (* (- 2.0) l_1_4_10) l_1_4_8) (* (* 2.0 l_1_4_7) l_1_4_9))))
 (= ?x766 0.0)))
(assert
 (let ((?x783 (* l_1_4_9 l_1_4_9)))
 (= (- (- (* (- l_1_4_10) l_1_4_10) (* l_1_4_11 l_1_4_11)) ?x783) 0.0)))
(assert
 (>= l_1_4_1 0.0))
(assert
 (>= l_1_4_2 0.0))
(assert
 (>= l_1_4_3 0.0))
(assert
 (>= l_1_4_4 0.0))
(assert
 (>= l_1_4_5 0.0))
(assert
 (>= l_1_4_6 0.0))
(assert
 (>= l_1_4_8 0.0))
(assert
 (>= l_1_4_11 0.0))
(assert
 (let ((?x810 (* l_1_5_8 l_1_5_8)))
 (let ((?x809 (- (- (- (- (* 200.0 l_1_5_3) l_1_5_4) l_1_5_5) l_1_5_6) l_1_5_7)))
 (= (- ?x809 ?x810) 0.0))))
(assert
 (= (- (- l_1_5_1) (* (* 2.0 l_1_5_8) l_1_5_9)) 0.0))
(assert
 (= (- (- (* (* (- 2.0) l_1_5_11) l_1_5_8) l_1_5_2) l_1_5_3) 0.0))
(assert
 (= (- (* (- l_1_5_10) l_1_5_10) (* l_1_5_9 l_1_5_9)) 0.0))
(assert
 (let ((?x875 (- (* (* (- 2.0) l_1_5_10) l_1_5_12) (* (* 2.0 l_1_5_11) l_1_5_9))))
 (= ?x875 0.0)))
(assert
 (let ((?x892 (* l_1_5_13 l_1_5_13)))
 (= (- (- (* (- l_1_5_11) l_1_5_11) (* l_1_5_12 l_1_5_12)) ?x892) 0.0)))
(assert
 (>= l_1_5_1 0.0))
(assert
 (>= l_1_5_2 0.0))
(assert
 (>= l_1_5_3 0.0))
(assert
 (>= l_1_5_4 0.0))
(assert
 (>= l_1_5_5 0.0))
(assert
 (>= l_1_5_6 0.0))
(assert
 (>= l_1_5_7 0.0))
(assert
 (>= l_1_5_8 0.0))
(assert
 (>= l_1_5_10 0.0))
(assert
 (>= l_1_5_13 0.0))
(assert
 (let ((?x918 (* 200.0 l_1_6_3)))
 (let ((?x920 (- (+ (- (* _a_0_ _a_2_) (* l_1_6_10 l_1_6_10)) ?x918) l_1_6_4)))
 (let ((?x925 (- (- (- (- (- ?x920 l_1_6_5) l_1_6_6) l_1_6_7) l_1_6_8) l_1_6_9)))
 (= ?x925 0.0)))))
(assert
 (let ((?x954 (- (- (* _a_1_ _a_2_) (* (* 2.0 l_1_6_10) l_1_6_13)) l_1_6_2)))
 (= (- ?x954 l_1_6_3) 0.0)))
(assert
 (= (- (- l_1_6_1) (* (* 2.0 l_1_6_10) l_1_6_11)) 0.0))
(assert
 (= (- (* (- l_1_6_11) l_1_6_11) (* l_1_6_12 l_1_6_12)) 0.0))
(assert
 (let ((?x1001 (- (* (* (- 2.0) l_1_6_11) l_1_6_13) (* (* 2.0 l_1_6_12) l_1_6_14))))
 (= ?x1001 0.0)))
(assert
 (let ((?x1018 (* l_1_6_15 l_1_6_15)))
 (= (- (- (* (- l_1_6_13) l_1_6_13) (* l_1_6_14 l_1_6_14)) ?x1018) 0.0)))
(assert
 (>= l_1_6_1 0.0))
(assert
 (>= l_1_6_2 0.0))
(assert
 (>= l_1_6_3 0.0))
(assert
 (>= l_1_6_4 0.0))
(assert
 (>= l_1_6_5 0.0))
(assert
 (>= l_1_6_6 0.0))
(assert
 (>= l_1_6_7 0.0))
(assert
 (>= l_1_6_8 0.0))
(assert
 (>= l_1_6_9 0.0))
(assert
 (>= l_1_6_10 0.0))
(assert
 (>= l_1_6_12 0.0))
(assert
 (>= l_1_6_15 0.0))
(assert
 (let ((?x1048 (* 200.0 l_1_7_3)))
 (let ((?x1046 (* l_1_7_12 l_1_7_12)))
 (let ((?x1049 (+ (- (- (- (* (- _a_0_) _a_2_) l_1_7_10) l_1_7_11) ?x1046) ?x1048)))
 (let ((?x1054 (- (- (- (- (- ?x1049 l_1_7_4) l_1_7_5) l_1_7_6) l_1_7_7) l_1_7_8)))
 (= (+ (- ?x1054 l_1_7_9) 1.0) 0.0))))))
(assert
 (let ((?x1092 (- (- (* (- _a_1_) _a_2_) (* (* 2.0 l_1_7_12) l_1_7_15)) l_1_7_2)))
 (= (- ?x1092 l_1_7_3) 0.0)))
(assert
 (= (- (- l_1_7_1) (* (* 2.0 l_1_7_12) l_1_7_13)) 0.0))
(assert
 (= (- (* (- l_1_7_13) l_1_7_13) (* l_1_7_14 l_1_7_14)) 0.0))
(assert
 (let ((?x1139 (- (* (* (- 2.0) l_1_7_13) l_1_7_15) (* (* 2.0 l_1_7_14) l_1_7_16))))
 (= ?x1139 0.0)))
(assert
 (let ((?x1156 (* l_1_7_17 l_1_7_17)))
 (= (- (- (* (- l_1_7_15) l_1_7_15) (* l_1_7_16 l_1_7_16)) ?x1156) 0.0)))
(assert
 (>= l_1_7_1 0.0))
(assert
 (>= l_1_7_2 0.0))
(assert
 (>= l_1_7_3 0.0))
(assert
 (>= l_1_7_4 0.0))
(assert
 (>= l_1_7_5 0.0))
(assert
 (>= l_1_7_6 0.0))
(assert
 (>= l_1_7_7 0.0))
(assert
 (>= l_1_7_8 0.0))
(assert
 (>= l_1_7_9 0.0))
(assert
 (>= l_1_7_10 0.0))
(assert
 (>= l_1_7_11 0.0))
(assert
 (>= l_1_7_12 0.0))
(assert
 (>= l_1_7_14 0.0))
(assert
 (>= l_1_7_17 0.0))
(check-sat)
(get-model)